(declare-fun x1 () (_ BitVec 32))
(declare-fun x2 () (_ BitVec 32))
(declare-fun x3 () (_ BitVec 32))
(declare-fun x4 () (_ BitVec 32))
(declare-fun y!0 () (_ BitVec 32))
(declare-fun y!1 () (_ BitVec 32))
(declare-fun y!2 () (_ BitVec 32))
(declare-fun y!3 () (_ BitVec 32))
(declare-fun forall_placeholder3 () Bool)
(declare-fun forall_placeholder2 () Bool)
(declare-fun forall_placeholder1 () Bool)
(declare-fun forall_placeholder0 () Bool)
(declare-fun y!4 () (_ BitVec 32))
(declare-fun y!5 () (_ BitVec 32))
(declare-fun y!6 () (_ BitVec 32))
(declare-fun y!7 () (_ BitVec 32))
(declare-fun forall_placeholder6 () Bool)
(declare-fun forall_placeholder5 () Bool)
(declare-fun forall_placeholder4 () Bool)
(declare-fun y!8 () (_ BitVec 32))
(declare-fun y!9 () (_ BitVec 32))
(declare-fun y!10 () (_ BitVec 32))
(declare-fun forall_placeholder8 () Bool)
(declare-fun forall_placeholder7 () Bool)
(declare-fun y!11 () (_ BitVec 32))
(declare-fun y!12 () (_ BitVec 32))
(declare-fun forall_placeholder9 () Bool)
(declare-fun y!13 () (_ BitVec 32))
(assert (not (or (not (or (bvsge (bvadd (bvmul #b11111111111111111111111111110010 y!4) (bvmul #b00000000000000000000000000110001 y!8) (bvmul #b11111111111111111111111111000001 y!11) (bvmul #b00000000000000000000000001010111 y!13)) #b00000000000000000000000001011110) (bvsge #b00000000000000000000000000001110 (bvadd (bvmul #b00000000000000000000000001011000 y!4) (bvmul #b00000000000000000000000001010011 y!8) (bvmul #b11111111111111111111111111011101 y!13))))) (or (or (= #b11111111111111111111111111100001 (bvadd (bvmul #b00000000000000000000000000011111 y!4) (bvmul #b11111111111111111111111110100000 y!8) (bvmul #b00000000000000000000000001000011 y!11) (bvmul #b11111111111111111111111111001001 y!13))) (not (= #b11111111111111111111111111101011 (bvadd (bvmul #b00000000000000000000000001010001 y!4) (bvmul #b11111111111111111111111111101001 y!8) (bvmul #b11111111111111111111111111001010 y!13))))) (or (not (bvsge #b00000000000000000000000000000000 (bvadd (bvmul #b00000000000000000000000001000101 y!4) (bvmul #b11111111111111111111111111111000 y!11)))) (bvsge (bvadd (bvmul #b11111111111111111111111111001011 y!4) (bvmul #b11111111111111111111111111111100 y!11) (bvmul #b11111111111111111111111111011101 y!13)) #b00000000000000000000000000011100))))))
(declare-fun x1 () (_ BitVec 32))
(declare-fun x2 () (_ BitVec 32))
(declare-fun x3 () (_ BitVec 32))
(declare-fun x4 () (_ BitVec 32))
(declare-fun y!0 () (_ BitVec 32))
(declare-fun y!1 () (_ BitVec 32))
(declare-fun y!2 () (_ BitVec 32))
(declare-fun y!3 () (_ BitVec 32))
(declare-fun forall_placeholder3 () Bool)
(declare-fun forall_placeholder2 () Bool)
(declare-fun forall_placeholder1 () Bool)
(declare-fun forall_placeholder0 () Bool)
(declare-fun y!4 () (_ BitVec 32))
(declare-fun y!5 () (_ BitVec 32))
(declare-fun y!6 () (_ BitVec 32))
(declare-fun y!7 () (_ BitVec 32))
(declare-fun forall_placeholder6 () Bool)
(declare-fun forall_placeholder5 () Bool)
(declare-fun forall_placeholder4 () Bool)
(declare-fun y!8 () (_ BitVec 32))
(declare-fun y!9 () (_ BitVec 32))
(declare-fun y!10 () (_ BitVec 32))
(declare-fun forall_placeholder8 () Bool)
(declare-fun forall_placeholder7 () Bool)
(declare-fun y!11 () (_ BitVec 32))
(declare-fun y!12 () (_ BitVec 32))
(declare-fun forall_placeholder9 () Bool)
(declare-fun y!13 () (_ BitVec 32))
(assert (or (bvsge (bvadd (bvmul #b11111111111111111111111111110010 y!4) (bvmul #b00000000000000000000000000110001 y!8) (bvmul #b11111111111111111111111111000001 y!11) (bvmul #b00000000000000000000000001010111 y!13)) #b00000000000000000000000001011110) (bvsge #b00000000000000000000000000001110 (bvadd (bvmul #b00000000000000000000000001011000 y!4) (bvmul #b00000000000000000000000001010011 y!8) (bvmul #b11111111111111111111111111011101 y!13)))))
(check-sat)
